####################################################################### 
# 
# This file contains crystal structure data downloaded from the 
# Cambridge Structural Database (CSD) hosted by the Cambridge 
# Crystallographic Data Centre (CCDC).
# 
# Full information about CCDC data access policies and citation 
# guidelines are available at http://www.ccdc.cam.ac.uk/access/V1 
# 
# Audit and citation data items may have been added by the CCDC. 
# Please retain this information to preserve the provenance of 
# this file and to allow appropriate attribution of the data. 
# 
#######################################################################

data_njy2
_audit_block_doi                 10.5517/cc78zjz
_database_code_depnum_ccdc_archive 'CCDC 217171'
loop_
_citation_id
_citation_doi
_citation_year
1 10.1080/00958970412331272386 2004
_audit_update_record             
;
2003-08-08 deposited with the CCDC.
2017-04-26 downloaded from the CCDC.
;

_audit_creation_method           SHELXL-97
_chemical_name_systematic        
;
?
;
_chemical_name_common            ?
_chemical_melting_point          ?
_chemical_formula_moiety         ?
_chemical_formula_sum            'C20 H28 N4 O40 W12'
_chemical_formula_weight         3170.66

loop_
_atom_type_symbol
_atom_type_description
_atom_type_scat_dispersion_real
_atom_type_scat_dispersion_imag
_atom_type_scat_source
C C 0.0033 0.0016 'International Tables Vol C Tables 4.2.6.8 and 6.1.1.4'
H H 0.0000 0.0000 'International Tables Vol C Tables 4.2.6.8 and 6.1.1.4'
N N 0.0061 0.0033 'International Tables Vol C Tables 4.2.6.8 and 6.1.1.4'
O O 0.0106 0.0060 'International Tables Vol C Tables 4.2.6.8 and 6.1.1.4'
W W -0.8490 6.8722 'International Tables Vol C Tables 4.2.6.8 and 6.1.1.4'

_symmetry_cell_setting           Monoclinic
_symmetry_space_group_name_H-M   P2(1)/c

loop_
_symmetry_equiv_pos_as_xyz
'x, y, z'
'-x, y+1/2, -z+1/2'
'-x, -y, -z'
'x, -y-1/2, z-1/2'

_cell_length_a                   18.210(4)
_cell_length_b                   19.713(4)
_cell_length_c                   15.069(3)
_cell_angle_alpha                90.00
_cell_angle_beta                 97.68(3)
_cell_angle_gamma                90.00
_cell_volume                     5360.8(18)
_cell_formula_units_Z            4
_cell_measurement_temperature    293(2)
_cell_measurement_reflns_used    250
_cell_measurement_theta_min      2.5
_cell_measurement_theta_max      24,5

_exptl_crystal_description       Block
_exptl_crystal_colour            Colorless
_exptl_crystal_size_max          0.21
_exptl_crystal_size_mid          0.10
_exptl_crystal_size_min          0.08
_exptl_crystal_density_meas      ?
_exptl_crystal_density_diffrn    3.929
_exptl_crystal_density_method    'not measured'
_exptl_crystal_F_000             5536
_exptl_absorpt_coefficient_mu    25.729
_exptl_absorpt_correction_type   empirical
_exptl_absorpt_correction_T_min  0.0745
_exptl_absorpt_correction_T_max  0.2327
_exptl_absorpt_process_details   ?

_exptl_special_details           
;
?
;

_diffrn_ambient_temperature      293(2)
_diffrn_radiation_wavelength     0.71073
_diffrn_radiation_type           MoK\a
_diffrn_radiation_source         'fine-focus sealed tube'
_diffrn_radiation_monochromator  graphite
_diffrn_measurement_device_type  R-axis-IV
_diffrn_measurement_method       'Osillation frames'
_diffrn_detector_area_resol_mean ?
_diffrn_standards_number         none
_diffrn_standards_interval_count none
_diffrn_standards_interval_time  none
_diffrn_standards_decay_%        none
_diffrn_reflns_number            12940
_diffrn_reflns_av_R_equivalents  0.0487
_diffrn_reflns_av_sigmaI/netI    0.0737
_diffrn_reflns_limit_h_min       -21
_diffrn_reflns_limit_h_max       20
_diffrn_reflns_limit_k_min       -23
_diffrn_reflns_limit_k_max       23
_diffrn_reflns_limit_l_min       0
_diffrn_reflns_limit_l_max       17
_diffrn_reflns_theta_min         1.13
_diffrn_reflns_theta_max         24.75
_reflns_number_total             7676
_reflns_number_gt                6493
_reflns_threshold_expression     >2sigma(I)

_computing_data_collection       Raxis
_computing_cell_refinement       Raxis
_computing_data_reduction        Raxis
_computing_structure_solution    'SHELXS-97 (Sheldrick, 1990)'
_computing_structure_refinement  'SHELXL-97 (Sheldrick, 1997)'
_computing_molecular_graphics    Texsan
_computing_publication_material  Texsan

_refine_special_details          
;
Refinement of F^2^ against ALL reflections.  The weighted R-factor wR and
goodness of fit S are based on F^2^, conventional R-factors R are based
on F, with F set to zero for negative F^2^. The threshold expression of
F^2^ > 2sigma(F^2^) is used only for calculating R-factors(gt) etc. and is
not relevant to the choice of reflections for refinement.  R-factors based
on F^2^ are statistically about twice as large as those based on F, and R-
factors based on ALL data will be even larger.
;

_refine_ls_structure_factor_coef Fsqd
_refine_ls_matrix_type           full
_refine_ls_weighting_scheme      calc
_refine_ls_weighting_details     
'calc w=1/[\s^2^(Fo^2^)+(0.0670P)^2^+24.4309P] where P=(Fo^2^+2Fc^2^)/3'
_atom_sites_solution_primary     direct
_atom_sites_solution_secondary   difmap
_atom_sites_solution_hydrogens   geom
_refine_ls_hydrogen_treatment    mixed
_refine_ls_extinction_method     SHELXL
_refine_ls_extinction_coef       0.000104(13)
_refine_ls_extinction_expression Fc^*^=kFc[1+0.001xFc^2^\l^3^/sin(2\q)]^-1/4^
_refine_ls_number_reflns         7676
_refine_ls_number_parameters     686
_refine_ls_number_restraints     38
_refine_ls_R_factor_all          0.0889
_refine_ls_R_factor_gt           0.0637
_refine_ls_wR_factor_ref         0.1405
_refine_ls_wR_factor_gt          0.1315
_refine_ls_goodness_of_fit_ref   1.140
_refine_ls_restrained_S_all      1.137
_refine_ls_shift/su_max          0.000
_refine_ls_shift/su_mean         0.000

loop_
_atom_site_label
_atom_site_type_symbol
_atom_site_fract_x
_atom_site_fract_y
_atom_site_fract_z
_atom_site_U_iso_or_equiv
_atom_site_adp_type
_atom_site_occupancy
_atom_site_symmetry_multiplicity
_atom_site_calc_flag
_atom_site_refinement_flags
_atom_site_disorder_assembly
_atom_site_disorder_group
W1 W -0.66430(7) 0.16282(5) 0.75176(7) 0.0387(3) Uani 1 1 d . . .
W2 W -0.77073(6) 0.13443(5) 0.91085(6) 0.0347(3) Uani 1 1 d . . .
W3 W -0.60483(6) 0.05936(5) 0.92093(6) 0.0322(3) Uani 1 1 d . . .
W4 W -0.63330(7) 0.02205(5) 0.59467(6) 0.0410(3) Uani 1 1 d . . .
W5 W -0.57606(6) -0.07881(5) 0.76381(6) 0.0335(3) Uani 1 1 d . . .
W6 W -0.71265(6) -0.12763(5) 0.61290(6) 0.0348(3) Uani 1 1 d . . .
W7 W -0.69505(6) -0.10721(5) 0.94198(6) 0.0318(3) Uani 1 1 d . . .
W8 W -0.83277(6) -0.15864(5) 0.78996(7) 0.0375(3) Uani 1 1 d . . .
W9 W -0.86128(6) -0.03313(5) 0.92859(7) 0.0353(3) Uani 1 1 d . . .
W10 W -0.92231(7) 0.08090(6) 0.73662(8) 0.0515(4) Uani 1 1 d . . .
W11 W -0.81562(7) 0.10554(6) 0.58125(8) 0.0529(4) Uani 1 1 d . . .
W12 W -0.89424(7) -0.04411(6) 0.59958(9) 0.0580(4) Uani 1 1 d . . .
O1 O -0.6267(12) 0.2362(8) 0.7213(12) 0.055(5) Uani 1 1 d . . .
O2 O -0.8035(11) 0.1905(9) 0.9820(10) 0.048(5) Uani 1 1 d . . .
O3 O -0.5300(9) 0.0690(9) 0.9993(10) 0.044(5) Uani 1 1 d . . .
O4 O -0.5884(12) 0.0495(9) 0.5083(11) 0.058(6) Uani 1 1 d . . .
O5 O -0.4926(9) -0.1162(10) 0.7918(12) 0.052(5) Uani 1 1 d . . .
O6 O -0.7151(10) -0.1942(9) 0.5392(11) 0.047(5) Uani 1 1 d . . .
O7 O -0.6475(10) -0.1534(9) 1.0266(10) 0.043(4) Uani 1 1 d . . .
O8 O -0.8757(11) -0.2358(9) 0.7755(13) 0.055(5) Uani 1 1 d . . .
O9 O -0.9173(10) -0.0296(10) 1.0110(12) 0.051(5) Uani 1 1 d . . .
O10 O -1.0020(11) 0.1187(12) 0.7495(17) 0.086(8) Uani 1 1 d . . .
O11 O -0.8301(16) 0.1591(11) 0.4898(13) 0.091(9) Uani 1 1 d . . .
O12 O -0.9611(12) -0.0831(10) 0.5254(14) 0.076(7) Uani 1 1 d . . .
O13 O -0.6184(10) -0.1484(8) 0.6784(10) 0.039(4) Uani 1 1 d . . .
O14 O -0.7542(9) -0.1801(7) 0.8836(11) 0.036(4) Uani 1 1 d . . .
O15 O -0.7516(11) 0.1572(8) 0.6649(11) 0.049(5) Uani 1 1 d . . .
O16 O -0.5519(9) -0.0247(9) 0.6650(10) 0.040(4) Uani 1 1 d . . .
O17 O -0.6750(9) 0.1145(7) 0.9749(9) 0.032(4) Uani 1 1 d . . .
O18 O -0.9160(10) 0.0123(9) 0.8309(12) 0.048(5) Uani 1 1 d . . .
O19 O -0.8538(10) 0.1323(8) 0.8183(11) 0.047(5) Uani 1 1 d . . .
O20 O -0.8073(10) -0.0833(8) 0.5713(9) 0.042(5) Uani 1 1 d . . .
O21 O -0.8900(9) -0.1071(9) 0.6999(11) 0.044(5) Uani 1 1 d . . .
O22 O -0.6658(10) -0.0654(9) 0.5376(9) 0.042(4) Uani 1 1 d . . .
O23 O -0.6526(10) -0.0185(8) 0.9600(9) 0.039(4) Uani 1 1 d . . .
O24 O -0.7301(11) 0.0555(8) 0.5552(11) 0.053(5) Uani 1 1 d . . .
O25 O -0.7240(10) 0.1984(8) 0.8371(11) 0.043(5) Uani 1 1 d . . .
O26 O -0.9008(11) 0.1350(11) 0.6408(13) 0.063(5) Uani 1 1 d U . .
O27 O -0.8881(10) -0.1201(8) 0.8749(12) 0.045(5) Uani 1 1 d . . .
O28 O -0.9680(12) 0.0098(11) 0.6577(13) 0.067(6) Uani 1 1 d U . .
O29 O -0.8072(9) 0.0518(8) 0.9500(9) 0.032(4) Uani 1 1 d . . .
O30 O -0.7614(9) -0.1652(8) 0.7063(10) 0.036(4) Uani 1 1 d . . .
O31 O -0.5697(9) 0.0022(8) 0.8368(10) 0.037(4) Uani 1 1 d . . .
O32 O -0.5890(9) 0.1380(8) 0.8462(11) 0.040(4) Uani 1 1 d . . .
O33 O -0.6241(10) 0.0999(9) 0.6737(11) 0.050(5) Uani 1 1 d . . .
O34 O -0.7794(9) -0.0786(8) 0.9981(9) 0.035(4) Uani 1 1 d . . .
O35 O -0.6296(8) -0.1172(7) 0.8533(9) 0.030(4) Uani 1 1 d . . .
O36 O -0.8750(10) 0.0271(9) 0.5258(11) 0.045(4) Uani 1 1 d U . .
O37 O -0.7107(9) 0.0708(8) 0.8171(10) 0.033(4) Uani 1 1 d . . .
O38 O -0.7769(9) -0.0593(8) 0.8323(11) 0.039(4) Uani 1 1 d . . .
O39 O -0.6845(10) -0.0367(8) 0.6979(8) 0.036(4) Uani 1 1 d . . .
O40 O -0.8310(9) 0.0282(8) 0.6856(9) 0.036(4) Uani 1 1 d . . .
N1 N -0.3764(16) 0.1213(13) 0.6105(17) 0.062(7) Uani 1 1 d . . .
C1 C -0.425(2) 0.0862(16) 0.6453(19) 0.065(10) Uani 1 1 d . . .
H1A H -0.4464 0.0482 0.6156 0.078 Uiso 1 1 calc R . .
C2 C -0.4461(16) 0.1049(19) 0.725(2) 0.063(9) Uani 1 1 d . . .
H2A H -0.4782 0.0782 0.7536 0.075 Uiso 1 1 calc R . .
C3 C -0.417(3) 0.167(2) 0.765(2) 0.090(14) Uani 1 1 d . . .
H3A H -0.4307 0.1827 0.8186 0.108 Uiso 1 1 calc R . .
C4 C -0.367(3) 0.2034(17) 0.723(3) 0.101(15) Uani 1 1 d . . .
H4A H -0.3476 0.2441 0.7463 0.121 Uiso 1 1 calc R . .
C5 C -0.3477(19) 0.1785(17) 0.645(2) 0.071(10) Uani 1 1 d . . .
H5A H -0.3138 0.2021 0.6155 0.085 Uiso 1 1 calc R . .
N2 N -0.5593(18) 0.2249(15) 1.0595(15) 0.070(8) Uani 1 1 d . . .
C6 C -0.6164(18) 0.2616(16) 1.0175(19) 0.058(8) Uani 1 1 d U . .
H6A H -0.6632 0.2577 1.0354 0.070 Uiso 1 1 calc R . .
C7 C -0.6061(16) 0.3029(14) 0.9512(16) 0.047(8) Uani 1 1 d . . .
H7A H -0.6457 0.3289 0.9248 0.057 Uiso 1 1 calc R . .
C8 C -0.540(3) 0.3087(18) 0.921(2) 0.087(14) Uani 1 1 d . . .
H8A H -0.5334 0.3374 0.8733 0.104 Uiso 1 1 calc R . .
C9 C -0.483(2) 0.270(3) 0.963(2) 0.093(15) Uani 1 1 d . . .
H9A H -0.4366 0.2725 0.9444 0.112 Uiso 1 1 calc R . .
C10 C -0.493(2) 0.2285(17) 1.029(2) 0.068(11) Uani 1 1 d . . .
H10A H -0.4545 0.2014 1.0547 0.082 Uiso 1 1 calc R . .
N3 N 0.000(3) 0.3028(19) 0.440(3) 0.132(16) Uani 1 1 d . . .
C11 C 0.0210(17) 0.2559(18) 0.501(3) 0.098(17) Uani 1 1 d D . .
H11A H 0.0718 0.2488 0.5140 0.117 Uiso 1 1 calc R . .
C12 C -0.023(3) 0.2173(15) 0.545(2) 0.10(2) Uani 1 1 d D . .
H12A H -0.0039 0.1866 0.5892 0.125 Uiso 1 1 calc R . .
C13 C -0.096(3) 0.2263(19) 0.522(2) 0.086(15) Uani 1 1 d D . .
H13A H -0.1285 0.1983 0.5479 0.103 Uiso 1 1 calc R . .
C14 C -0.123(2) 0.269(3) 0.467(4) 0.106(18) Uani 1 1 d . . .
H14A H -0.1742 0.2761 0.4589 0.127 Uiso 1 1 calc R . .
C15 C -0.079(3) 0.307(3) 0.420(3) 0.105(18) Uani 1 1 d . . .
H15A H -0.1010 0.3349 0.3747 0.126 Uiso 1 1 calc R . .
N4 N -1.0454(16) -0.0851(16) 0.751(2) 0.079(8) Uani 1 1 d U . .
C16 C -1.073(4) -0.144(3) 0.704(3) 0.14(2) Uani 1 1 d . . .
H16A H -1.0575 -0.1490 0.6481 0.167 Uiso 1 1 calc R . .
C17 C -1.115(4) -0.191(3) 0.727(4) 0.19(4) Uani 1 1 d . . .
H17A H -1.1273 -0.2295 0.6923 0.230 Uiso 1 1 calc R . .
C18 C -1.139(2) -0.178(2) 0.806(3) 0.099(14) Uani 1 1 d . . .
H18A H -1.1751 -0.2060 0.8252 0.118 Uiso 1 1 calc R . .
C19 C -1.111(2) -0.1237(19) 0.862(3) 0.097(14) Uani 1 1 d . . .
H19A H -1.1225 -0.1214 0.9197 0.117 Uiso 1 1 calc R . .
C20 C -1.068(2) -0.076(2) 0.834(2) 0.081(10) Uani 1 1 d U . .
H20A H -1.0543 -0.0375 0.8681 0.098 Uiso 1 1 calc R . .

loop_
_atom_site_aniso_label
_atom_site_aniso_U_11
_atom_site_aniso_U_22
_atom_site_aniso_U_33
_atom_site_aniso_U_23
_atom_site_aniso_U_13
_atom_site_aniso_U_12
W1 0.0597(7) 0.0208(5) 0.0360(5) -0.0009(4) 0.0079(5) -0.0076(5)
W2 0.0430(6) 0.0251(5) 0.0361(5) -0.0085(4) 0.0056(4) 0.0063(5)
W3 0.0351(6) 0.0282(5) 0.0327(5) -0.0056(4) 0.0028(4) 0.0001(4)
W4 0.0695(8) 0.0248(5) 0.0307(5) -0.0016(4) 0.0143(5) -0.0056(5)
W5 0.0390(6) 0.0296(5) 0.0337(5) -0.0034(4) 0.0116(4) 0.0003(5)
W6 0.0493(6) 0.0231(5) 0.0326(5) -0.0039(4) 0.0075(4) -0.0018(5)
W7 0.0345(6) 0.0277(5) 0.0347(5) 0.0043(4) 0.0097(4) 0.0059(4)
W8 0.0388(6) 0.0264(5) 0.0491(6) -0.0103(5) 0.0123(5) -0.0030(5)
W9 0.0341(6) 0.0293(5) 0.0446(6) -0.0065(4) 0.0123(4) 0.0033(5)
W10 0.0609(8) 0.0346(6) 0.0533(7) -0.0114(5) -0.0130(6) 0.0205(6)
W11 0.0731(9) 0.0264(6) 0.0526(7) 0.0018(5) -0.0156(6) 0.0075(6)
W12 0.0589(8) 0.0324(6) 0.0728(8) -0.0176(6) -0.0269(7) 0.0119(6)
O1 0.097(16) 0.024(10) 0.048(11) 0.003(8) 0.020(10) -0.005(10)
O2 0.074(14) 0.032(10) 0.037(9) 0.001(8) 0.010(9) 0.006(10)
O3 0.032(10) 0.056(12) 0.042(10) -0.008(9) -0.001(8) 0.006(9)
O4 0.101(17) 0.037(11) 0.038(10) 0.000(8) 0.018(10) 0.006(11)
O5 0.035(10) 0.071(14) 0.053(11) -0.011(10) 0.021(8) 0.014(10)
O6 0.052(12) 0.045(11) 0.046(10) -0.018(9) 0.019(9) -0.002(9)
O7 0.055(12) 0.038(10) 0.039(9) 0.012(8) 0.016(8) 0.012(9)
O8 0.058(13) 0.037(11) 0.075(13) -0.029(9) 0.029(10) -0.021(10)
O9 0.048(12) 0.051(12) 0.062(12) -0.011(9) 0.038(9) 0.006(10)
O10 0.033(11) 0.075(16) 0.14(2) -0.043(15) -0.022(12) 0.034(11)
O11 0.16(3) 0.048(13) 0.054(13) -0.007(11) -0.025(14) 0.026(15)
O12 0.086(17) 0.041(12) 0.088(15) -0.007(11) -0.034(13) 0.018(12)
O13 0.055(11) 0.035(10) 0.033(9) -0.005(7) 0.032(8) -0.005(9)
O14 0.048(11) 0.011(8) 0.055(10) 0.010(7) 0.026(8) 0.002(7)
O15 0.087(14) 0.011(8) 0.046(10) 0.005(7) -0.001(10) 0.009(9)
O16 0.044(10) 0.049(11) 0.029(8) -0.026(8) 0.016(7) -0.019(9)
O17 0.049(10) 0.017(8) 0.032(8) -0.008(6) 0.011(7) -0.007(8)
O18 0.039(10) 0.034(10) 0.071(12) -0.020(9) -0.001(9) -0.011(9)
O19 0.062(12) 0.027(9) 0.049(10) -0.006(8) 0.000(9) 0.012(9)
O20 0.072(13) 0.022(9) 0.026(8) -0.005(7) -0.018(8) -0.008(9)
O21 0.024(9) 0.056(12) 0.047(10) -0.009(9) -0.012(8) 0.014(9)
O22 0.056(12) 0.047(11) 0.024(8) -0.003(7) 0.013(8) 0.013(9)
O23 0.059(11) 0.035(10) 0.020(8) 0.004(7) -0.006(7) 0.012(9)
O24 0.092(16) 0.025(9) 0.037(9) -0.010(8) -0.010(10) -0.010(10)
O25 0.066(13) 0.016(8) 0.046(10) 0.004(7) 0.000(9) 0.002(8)
O26 0.063(6) 0.063(6) 0.063(6) -0.0002(10) 0.0086(12) 0.0001(10)
O27 0.049(11) 0.029(10) 0.062(11) -0.019(8) 0.027(9) -0.005(9)
O28 0.067(6) 0.067(6) 0.067(6) -0.0005(10) 0.0089(13) -0.0001(10)
O29 0.035(9) 0.031(9) 0.032(8) -0.004(7) 0.014(7) 0.007(8)
O30 0.038(10) 0.024(9) 0.049(10) -0.006(7) 0.014(8) -0.002(8)
O31 0.044(10) 0.035(10) 0.039(9) 0.007(8) 0.031(8) 0.000(9)
O32 0.033(10) 0.037(10) 0.050(10) -0.013(8) 0.005(8) -0.005(8)
O33 0.053(12) 0.053(12) 0.047(11) -0.007(9) 0.017(9) -0.031(10)
O34 0.050(10) 0.038(10) 0.017(7) -0.008(7) 0.009(7) 0.000(8)
O35 0.030(9) 0.023(8) 0.035(8) -0.009(7) -0.004(7) 0.000(7)
O36 0.045(4) 0.045(4) 0.045(4) -0.0008(10) 0.0061(12) -0.0003(10)
O37 0.040(10) 0.022(8) 0.039(9) 0.000(7) 0.016(7) 0.000(8)
O38 0.048(11) 0.022(9) 0.053(10) -0.003(7) 0.029(8) 0.007(8)
O39 0.072(12) 0.024(8) 0.013(7) -0.001(6) 0.014(7) -0.012(8)
O40 0.052(11) 0.023(9) 0.032(8) -0.004(7) 0.000(8) -0.006(8)
N1 0.09(2) 0.036(15) 0.068(17) -0.013(12) 0.037(15) 0.002(14)
C1 0.10(3) 0.049(19) 0.043(17) -0.011(15) -0.007(17) 0.01(2)
C2 0.047(18) 0.09(3) 0.061(19) 0.009(18) 0.039(15) -0.015(18)
C3 0.15(4) 0.10(3) 0.035(17) -0.006(18) 0.04(2) 0.04(3)
C4 0.15(4) 0.033(19) 0.12(3) -0.05(2) 0.03(3) -0.03(2)
C5 0.06(2) 0.05(2) 0.09(3) 0.012(19) 0.011(19) -0.010(18)
N2 0.09(2) 0.08(2) 0.040(14) -0.005(13) 0.024(14) -0.005(18)
C6 0.058(8) 0.058(8) 0.058(8) -0.0001(10) 0.0078(15) -0.0001(10)
C7 0.056(19) 0.048(17) 0.031(13) -0.019(12) -0.017(13) 0.013(15)
C8 0.16(4) 0.07(2) 0.048(19) 0.024(17) 0.05(2) -0.02(3)
C9 0.07(3) 0.16(5) 0.05(2) -0.04(3) 0.029(19) -0.06(3)
C10 0.09(3) 0.07(2) 0.040(17) -0.019(16) -0.020(18) 0.03(2)
N3 0.19(5) 0.08(3) 0.14(3) 0.05(2) 0.06(3) -0.01(3)
C11 0.05(2) 0.05(2) 0.18(4) -0.03(3) -0.06(3) 0.007(18)
C12 0.22(6) 0.017(17) 0.06(2) -0.005(15) -0.05(3) 0.01(3)
C13 0.16(5) 0.05(2) 0.06(2) 0.007(18) 0.04(3) -0.04(3)
C14 0.05(2) 0.11(4) 0.17(5) -0.07(4) 0.04(3) -0.04(3)
C15 0.09(3) 0.15(4) 0.07(2) 0.00(3) -0.03(2) 0.07(3)
N4 0.078(8) 0.079(8) 0.079(8) -0.0003(10) 0.0106(15) -0.0002(10)
C16 0.20(6) 0.12(5) 0.09(3) -0.05(3) 0.01(4) 0.03(4)
C17 0.34(11) 0.09(4) 0.19(6) -0.08(4) 0.18(7) -0.08(5)
C18 0.10(3) 0.10(3) 0.11(3) 0.02(3) 0.03(3) -0.03(3)
C19 0.12(4) 0.06(2) 0.11(3) -0.02(2) 0.00(3) 0.01(3)
C20 0.081(10) 0.082(10) 0.081(10) 0.0000(10) 0.0109(17) 0.0000(10)

_geom_special_details            
;
All esds (except the esd in the dihedral angle between two l.s. planes)
are estimated using the full covariance matrix.  The cell esds are taken
into account individually in the estimation of esds in distances, angles
and torsion angles; correlations between esds in cell parameters are only
used when they are defined by crystal symmetry.  An approximate (isotropic)
treatment of cell esds is used for estimating esds involving l.s. planes.
;

loop_
_geom_bond_atom_site_label_1
_geom_bond_atom_site_label_2
_geom_bond_distance
_geom_bond_site_symmetry_2
_geom_bond_publ_flag
W1 O1 1.690(18) . ?
W1 O32 1.904(15) . ?
W1 O33 1.920(19) . ?
W1 O15 1.923(18) . ?
W1 O25 1.925(19) . ?
W1 O37 2.279(15) . ?
W2 O2 1.703(18) . ?
W2 O29 1.883(16) . ?
W2 O19 1.916(16) . ?
W2 O17 1.916(15) . ?
W2 O25 1.949(17) . ?
W2 O37 2.275(15) . ?
W3 O3 1.690(14) . ?
W3 O31 1.872(16) . ?
W3 O23 1.896(17) . ?
W3 O17 1.938(16) . ?
W3 O32 1.960(18) . ?
W3 O37 2.326(15) . ?
W4 O4 1.71(2) . ?
W4 O24 1.902(19) . ?
W4 O16 1.936(17) . ?
W4 O33 1.937(18) . ?
W4 O22 1.981(17) . ?
W4 O39 2.241(15) . ?
W5 O5 1.690(17) . ?
W5 O35 1.922(16) . ?
W5 O16 1.930(17) . ?
W5 O31 1.933(16) . ?
W5 O13 1.967(16) . ?
W5 O39 2.246(17) . ?
W6 O6 1.716(16) . ?
W6 O13 1.907(17) . ?
W6 O30 1.911(16) . ?
W6 O22 1.944(18) . ?
W6 O20 1.959(17) . ?
W6 O39 2.222(14) . ?
W7 O7 1.706(15) . ?
W7 O35 1.916(16) . ?
W7 O23 1.916(16) . ?
W7 O34 1.934(16) . ?
W7 O14 1.935(16) . ?
W7 O38 2.277(16) . ?
W8 O8 1.711(17) . ?
W8 O27 1.891(17) . ?
W8 O21 1.893(15) . ?
W8 O14 1.917(16) . ?
W8 O30 1.932(17) . ?
W8 O38 2.259(16) . ?
W9 O9 1.710(17) . ?
W9 O18 1.890(18) . ?
W9 O34 1.925(15) . ?
W9 O27 1.930(16) . ?
W9 O29 1.947(16) . ?
W9 O38 2.308(16) . ?
W10 O10 1.665(19) . ?
W10 O26 1.88(2) . ?
W10 O19 1.920(16) . ?
W10 O28 1.95(2) . ?
W10 O18 1.953(19) . ?
W10 O40 2.186(17) . ?
W11 O11 1.73(2) . ?
W11 O15 1.895(17) . ?
W11 O24 1.93(2) . ?
W11 O26 1.98(2) . ?
W11 O36 2.005(17) . ?
W11 O40 2.235(15) . ?
W12 O12 1.720(19) . ?
W12 O36 1.852(18) . ?
W12 O20 1.862(19) . ?
W12 O21 1.950(18) . ?
W12 O28 2.00(2) . ?
W12 O40 2.154(14) . ?
N1 C1 1.29(4) . ?
N1 C5 1.32(4) . ?
C1 C2 1.36(4) . ?
C1 H1A 0.9300 . ?
C2 C3 1.44(5) . ?
C2 H2A 0.9300 . ?
C3 C4 1.37(5) . ?
C3 H3A 0.9300 . ?
C4 C5 1.36(5) . ?
C4 H4A 0.9300 . ?
C5 H5A 0.9300 . ?
N2 C10 1.34(4) . ?
N2 C6 1.35(4) . ?
C6 C7 1.32(4) . ?
C6 H6A 0.9300 . ?
C7 C8 1.35(5) . ?
C7 H7A 0.9300 . ?
C8 C9 1.38(6) . ?
C8 H8A 0.9300 . ?
C9 C10 1.32(5) . ?
C9 H9A 0.9300 . ?
C10 H10A 0.9300 . ?
N3 C11 1.32(5) . ?
N3 C15 1.43(6) . ?
C11 C12 1.346(10) . ?
C11 H11A 0.9300 . ?
C12 C13 1.348(10) . ?
C12 H12A 0.9300 . ?
C13 C14 1.23(6) . ?
C13 H13A 0.9300 . ?
C14 C15 1.35(6) . ?
C14 H14A 0.9300 . ?
C15 H15A 0.9300 . ?
N4 C20 1.37(4) . ?
N4 C16 1.41(6) . ?
C16 C17 1.28(7) . ?
C16 H16A 0.9300 . ?
C17 C18 1.36(6) . ?
C17 H17A 0.9300 . ?
C18 C19 1.41(5) . ?
C18 H18A 0.9300 . ?
C19 C20 1.33(5) . ?
C19 H19A 0.9300 . ?
C20 H20A 0.9300 . ?

loop_
_geom_angle_atom_site_label_1
_geom_angle_atom_site_label_2
_geom_angle_atom_site_label_3
_geom_angle
_geom_angle_site_symmetry_1
_geom_angle_site_symmetry_3
_geom_angle_publ_flag
O1 W1 O32 98.4(8) . . ?
O1 W1 O33 100.7(8) . . ?
O32 W1 O33 89.8(7) . . ?
O1 W1 O15 101.1(8) . . ?
O32 W1 O15 160.4(7) . . ?
O33 W1 O15 83.9(7) . . ?
O1 W1 O25 98.9(8) . . ?
O32 W1 O25 90.5(7) . . ?
O33 W1 O25 160.1(7) . . ?
O15 W1 O25 89.2(8) . . ?
O1 W1 O37 170.2(7) . . ?
O32 W1 O37 75.2(6) . . ?
O33 W1 O37 86.8(6) . . ?
O15 W1 O37 85.9(6) . . ?
O25 W1 O37 74.1(6) . . ?
O2 W2 O29 101.3(8) . . ?
O2 W2 O19 99.4(8) . . ?
O29 W2 O19 86.1(7) . . ?
O2 W2 O17 100.8(7) . . ?
O29 W2 O17 90.0(6) . . ?
O19 W2 O17 159.8(7) . . ?
O2 W2 O25 98.9(8) . . ?
O29 W2 O25 159.6(7) . . ?
O19 W2 O25 87.8(7) . . ?
O17 W2 O25 89.1(7) . . ?
O2 W2 O37 170.7(8) . . ?
O29 W2 O37 86.4(6) . . ?
O19 W2 O37 86.2(7) . . ?
O17 W2 O37 73.7(6) . . ?
O25 W2 O37 73.8(6) . . ?
O3 W3 O31 103.0(8) . . ?
O3 W3 O23 103.5(8) . . ?
O31 W3 O23 86.3(7) . . ?
O3 W3 O17 99.2(7) . . ?
O31 W3 O17 157.9(6) . . ?
O23 W3 O17 88.2(7) . . ?
O3 W3 O32 98.4(8) . . ?
O31 W3 O32 89.9(7) . . ?
O23 W3 O32 158.1(6) . . ?
O17 W3 O32 87.3(7) . . ?
O3 W3 O37 167.8(7) . . ?
O31 W3 O37 86.0(6) . . ?
O23 W3 O37 85.1(6) . . ?
O17 W3 O37 72.2(6) . . ?
O32 W3 O37 73.1(6) . . ?
O4 W4 O24 99.7(9) . . ?
O4 W4 O16 99.1(8) . . ?
O24 W4 O16 161.1(7) . . ?
O4 W4 O33 101.9(8) . . ?
O24 W4 O33 85.3(7) . . ?
O16 W4 O33 92.5(7) . . ?
O4 W4 O22 95.2(8) . . ?
O24 W4 O22 87.4(7) . . ?
O16 W4 O22 89.2(6) . . ?
O33 W4 O22 162.3(7) . . ?
O4 W4 O39 167.2(7) . . ?
O24 W4 O39 86.7(7) . . ?
O16 W4 O39 74.5(7) . . ?
O33 W4 O39 89.6(6) . . ?
O22 W4 O39 74.0(6) . . ?
O5 W5 O35 100.2(8) . . ?
O5 W5 O16 98.3(8) . . ?
O35 W5 O16 161.5(7) . . ?
O5 W5 O31 103.6(8) . . ?
O35 W5 O31 85.6(6) . . ?
O16 W5 O31 88.8(6) . . ?
O5 W5 O13 96.8(8) . . ?
O35 W5 O13 89.6(6) . . ?
O16 W5 O13 89.5(6) . . ?
O31 W5 O13 159.5(7) . . ?
O5 W5 O39 168.1(7) . . ?
O35 W5 O39 87.6(6) . . ?
O16 W5 O39 74.5(6) . . ?
O31 W5 O39 85.9(6) . . ?
O13 W5 O39 74.0(6) . . ?
O6 W6 O13 96.5(8) . . ?
O6 W6 O30 101.9(8) . . ?
O13 W6 O30 90.6(7) . . ?
O6 W6 O22 94.6(8) . . ?
O13 W6 O22 90.2(7) . . ?
O30 W6 O22 163.3(7) . . ?
O6 W6 O20 100.9(7) . . ?
O13 W6 O20 162.6(6) . . ?
O30 W6 O20 86.2(7) . . ?
O22 W6 O20 88.1(7) . . ?
O6 W6 O39 166.8(8) . . ?
O13 W6 O39 75.7(6) . . ?
O30 W6 O39 89.0(6) . . ?
O22 W6 O39 75.1(6) . . ?
O20 W6 O39 87.1(6) . . ?
O7 W7 O35 99.6(7) . . ?
O7 W7 O23 103.1(7) . . ?
O35 W7 O23 85.2(7) . . ?
O7 W7 O34 100.5(7) . . ?
O35 W7 O34 160.0(6) . . ?
O23 W7 O34 90.1(7) . . ?
O7 W7 O14 98.0(8) . . ?
O35 W7 O14 88.1(6) . . ?
O23 W7 O14 158.6(6) . . ?
O34 W7 O14 89.3(7) . . ?
O7 W7 O38 168.9(7) . . ?
O35 W7 O38 86.8(6) . . ?
O23 W7 O38 86.4(6) . . ?
O34 W7 O38 73.5(6) . . ?
O14 W7 O38 73.0(6) . . ?
O8 W8 O27 99.6(8) . . ?
O8 W8 O21 100.8(9) . . ?
O27 W8 O21 88.7(8) . . ?
O8 W8 O14 100.5(8) . . ?
O27 W8 O14 90.1(7) . . ?
O21 W8 O14 158.6(7) . . ?
O8 W8 O30 101.2(8) . . ?
O27 W8 O30 159.1(7) . . ?
O21 W8 O30 85.5(7) . . ?
O14 W8 O30 88.0(7) . . ?
O8 W8 O38 171.0(8) . . ?
O27 W8 O38 73.8(6) . . ?
O21 W8 O38 85.5(7) . . ?
O14 W8 O38 73.7(6) . . ?
O30 W8 O38 85.7(6) . . ?
O9 W9 O18 104.0(9) . . ?
O9 W9 O34 96.8(8) . . ?
O18 W9 O34 159.1(7) . . ?
O9 W9 O27 101.5(8) . . ?
O18 W9 O27 91.0(7) . . ?
O34 W9 O27 87.0(7) . . ?
O9 W9 O29 100.5(8) . . ?
O18 W9 O29 85.6(6) . . ?
O34 W9 O29 88.5(6) . . ?
O27 W9 O29 158.0(7) . . ?
O9 W9 O38 167.7(7) . . ?
O18 W9 O38 86.7(7) . . ?
O34 W9 O38 72.9(6) . . ?
O27 W9 O38 72.0(7) . . ?
O29 W9 O38 86.1(6) . . ?
O10 W10 O26 96.3(12) . . ?
O10 W10 O19 101.0(9) . . ?
O26 W10 O19 90.6(8) . . ?
O10 W10 O28 94.9(9) . . ?
O26 W10 O28 93.2(9) . . ?
O19 W10 O28 163.2(8) . . ?
O10 W10 O18 101.1(11) . . ?
O26 W10 O18 162.6(8) . . ?
O19 W10 O18 85.9(7) . . ?
O28 W10 O18 85.7(8) . . ?
O10 W10 O40 165.8(9) . . ?
O26 W10 O40 75.7(7) . . ?
O19 W10 O40 91.0(7) . . ?
O28 W10 O40 74.2(7) . . ?
O18 W10 O40 87.3(7) . . ?
O11 W11 O15 102.5(9) . . ?
O11 W11 O24 101.0(11) . . ?
O15 W11 O24 88.2(7) . . ?
O11 W11 O26 97.9(11) . . ?
O15 W11 O26 89.5(8) . . ?
O24 W11 O26 161.0(8) . . ?
O11 W11 O36 97.0(9) . . ?
O15 W11 O36 160.3(7) . . ?
O24 W11 O36 85.7(7) . . ?
O26 W11 O36 90.2(8) . . ?
O11 W11 O40 163.3(10) . . ?
O15 W11 O40 91.3(6) . . ?
O24 W11 O40 88.6(7) . . ?
O26 W11 O40 72.7(7) . . ?
O36 W11 O40 69.8(6) . . ?
O12 W12 O36 97.1(9) . . ?
O12 W12 O20 102.5(9) . . ?
O36 W12 O20 86.7(7) . . ?
O12 W12 O21 99.8(9) . . ?
O36 W12 O21 163.0(7) . . ?
O20 W12 O21 88.1(7) . . ?
O12 W12 O28 93.6(10) . . ?
O36 W12 O28 93.0(8) . . ?
O20 W12 O28 163.8(7) . . ?
O21 W12 O28 87.6(8) . . ?
O12 W12 O40 164.2(8) . . ?
O36 W12 O40 74.4(6) . . ?
O20 W12 O40 90.5(6) . . ?
O21 W12 O40 89.5(6) . . ?
O28 W12 O40 73.9(7) . . ?
W6 O13 W5 115.8(8) . . ?
W8 O14 W7 119.1(7) . . ?
W11 O15 W1 149.6(9) . . ?
W5 O16 W4 116.7(8) . . ?
W2 O17 W3 120.7(7) . . ?
W9 O18 W10 150.3(10) . . ?
W2 O19 W10 149.4(9) . . ?
W12 O20 W6 148.3(8) . . ?
W8 O21 W12 149.2(10) . . ?
W6 O22 W4 115.1(7) . . ?
W3 O23 W7 152.6(9) . . ?
W4 O24 W11 148.7(9) . . ?
W1 O25 W2 118.3(8) . . ?
W10 O26 W11 116.0(10) . . ?
W8 O27 W9 120.9(9) . . ?
W10 O28 W12 113.0(10) . . ?
W2 O29 W9 152.0(8) . . ?
W6 O30 W8 151.0(9) . . ?
W3 O31 W5 152.0(9) . . ?
W1 O32 W3 119.1(8) . . ?
W1 O33 W4 151.7(10) . . ?
W9 O34 W7 120.0(7) . . ?
W7 O35 W5 150.4(8) . . ?
W12 O36 W11 118.0(8) . . ?
W2 O37 W1 93.8(5) . . ?
W2 O37 W3 93.4(5) . . ?
W1 O37 W3 92.7(6) . . ?
W8 O38 W7 94.1(6) . . ?
W8 O38 W9 93.4(6) . . ?
W7 O38 W9 93.6(6) . . ?
W6 O39 W4 95.9(5) . . ?
W6 O39 W5 94.5(6) . . ?
W4 O39 W5 94.3(7) . . ?
W12 O40 W10 98.9(7) . . ?
W12 O40 W11 97.8(5) . . ?
W10 O40 W11 95.5(6) . . ?
C1 N1 C5 124(3) . . ?
N1 C1 C2 120(3) . . ?
N1 C1 H1A 119.9 . . ?
C2 C1 H1A 119.9 . . ?
C1 C2 C3 118(3) . . ?
C1 C2 H2A 121.1 . . ?
C3 C2 H2A 121.1 . . ?
C4 C3 C2 119(3) . . ?
C4 C3 H3A 120.6 . . ?
C2 C3 H3A 120.6 . . ?
C5 C4 C3 119(3) . . ?
C5 C4 H4A 120.7 . . ?
C3 C4 H4A 120.7 . . ?
N1 C5 C4 121(3) . . ?
N1 C5 H5A 119.7 . . ?
C4 C5 H5A 119.7 . . ?
C10 N2 C6 119(3) . . ?
C7 C6 N2 120(3) . . ?
C7 C6 H6A 119.8 . . ?
N2 C6 H6A 119.8 . . ?
C6 C7 C8 122(3) . . ?
C6 C7 H7A 118.8 . . ?
C8 C7 H7A 118.8 . . ?
C7 C8 C9 116(3) . . ?
C7 C8 H8A 121.8 . . ?
C9 C8 H8A 121.8 . . ?
C10 C9 C8 121(4) . . ?
C10 C9 H9A 119.3 . . ?
C8 C9 H9A 119.3 . . ?
C9 C10 N2 121(3) . . ?
C9 C10 H10A 119.5 . . ?
N2 C10 H10A 119.5 . . ?
C11 N3 C15 112(4) . . ?
N3 C11 C12 127(3) . . ?
N3 C11 H11A 116.6 . . ?
C12 C11 H11A 116.6 . . ?
C11 C12 C13 115(3) . . ?
C11 C12 H12A 122.3 . . ?
C13 C12 H12A 122.3 . . ?
C14 C13 C12 124(3) . . ?
C14 C13 H13A 118.1 . . ?
C12 C13 H13A 118.1 . . ?
C13 C14 C15 121(4) . . ?
C13 C14 H14A 119.6 . . ?
C15 C14 H14A 119.6 . . ?
C14 C15 N3 121(4) . . ?
C14 C15 H15A 119.7 . . ?
N3 C15 H15A 119.7 . . ?
C20 N4 C16 116(4) . . ?
C17 C16 N4 130(5) . . ?
C17 C16 H16A 114.8 . . ?
N4 C16 H16A 114.8 . . ?
C16 C17 C18 112(5) . . ?
C16 C17 H17A 124.0 . . ?
C18 C17 H17A 124.0 . . ?
C17 C18 C19 122(4) . . ?
C17 C18 H18A 119.1 . . ?
C19 C18 H18A 119.1 . . ?
C20 C19 C18 122(4) . . ?
C20 C19 H19A 118.8 . . ?
C18 C19 H19A 118.8 . . ?
C19 C20 N4 117(4) . . ?
C19 C20 H20A 121.6 . . ?
N4 C20 H20A 121.6 . . ?

_diffrn_measured_fraction_theta_max 0.836
_diffrn_reflns_theta_full        24.75
_diffrn_measured_fraction_theta_full 0.836
_refine_diff_density_max         3.270
_refine_diff_density_min         -1.779
_refine_diff_density_rms         0.334

