
#(C) 2020 by FIZ Karlsruhe - Leibniz Institute for Information Infrastructure.  All rights reserved.
data_110457-ICSD
_database_code_ICSD 110457
_audit_creation_date 2008-08-01
_chemical_name_common

;
Hexakis(dimethylammonium) tetrakis(dimethylformamido)copper
bis(dodecatungstogermanate) - dimethylformamide (1/2)
;
_chemical_formula_structural
'(((C H3)2 N H2)6 (Cu (H C O N (C H3)2)4) (Ge W12 O40)2) (H C O N (C H3)2)2'
_chemical_formula_sum 'C30 H90 Cu1 Ge2 N12 O86 W24'
_exptl_crystal_density_diffrn 4.07
_diffrn_ambient_temperature 293.
_citation_title

;
A novel Keggin units-supported complex: Synthesis, characterization and
crystal structure of ((C H3)2 N H2)6 Cu (DMF)4 (Ge W12 O40)2 * 2 DMF
;
loop_
_citation_id
_citation_journal_full
_citation_year
_citation_journal_volume
_citation_page_first
_citation_page_last
_citation_journal_id_ASTM
primary 'Journal of Coordination Chemistry' 2003 56 523 530 JCCMBQ
loop_
_citation_author_citation_id
_citation_author_name
primary 'Niu Jing Yang'
primary 'Han Qiu Xia'
primary 'Wang Jing Ping'
_cell_length_a 13.586(3)
_cell_length_b 20.015(4)
_cell_length_c 20.524(4)
_cell_angle_alpha 90
_cell_angle_beta 104.88(3)
_cell_angle_gamma 90
_cell_volume 5393.81
_cell_formula_units_Z 2
_space_group_name_H-M_alt 'P 1 21/c 1'
_space_group_IT_number 14
loop_
_space_group_symop_id
_space_group_symop_operation_xyz
1 'x, -y+1/2, z+1/2'
2 '-x, -y, -z'
3 '-x, y+1/2, -z+1/2'
4 'x, y, z'
loop_
_atom_type_symbol
_atom_type_oxidation_number
W6+ 6
Ge4+ 4
Cu2+ 2
O2- -2
N3- -3
O2- -2
C4+ 4
H1- -1
C4+ 4
H1- -1
C4+ 4
H1- -1
N3- -3
O2- -2
C4+ 4
H1- -1
C4+ 4
H1- -1
C4+ 4
H1- -1
N3- -3
O2- -2
C4+ 4
H1- -1
C4+ 4
H1- -1
C4+ 4
H1- -1
N3- -3
C4+ 4
H1- -1
C4+ 4
H1- -1
N3- -3
C4+ 4
H1- -1
C4+ 4
H1- -1
N3- -3
C4+ 4
H1- -1
C4+ 4
H1- -1
H1+ 1
loop_
_atom_site_label
_atom_site_type_symbol
_atom_site_symmetry_multiplicity
_atom_site_Wyckoff_symbol
_atom_site_fract_x
_atom_site_fract_y
_atom_site_fract_z
_atom_site_B_iso_or_equiv
_atom_site_occupancy
W1 W6+ 4 e 0.14300(6) 0.39586(4) -0.10966(4) . 1.
W2 W6+ 4 e 0.34884(6) 0.51381(4) -0.12449(4) . 1.
W3 W6+ 4 e 0.18924(7) 0.52606(5) -0.37042(4) . 1.
W4 W6+ 4 e 0.05538(6) 0.28302(5) -0.23091(4) . 1.
W5 W6+ 4 e 0.16516(7) 0.27436(5) -0.38011(4) . 1.
W6 W6+ 4 e 0.40019(7) 0.25943(5) -0.27724(4) . 1.
W7 W6+ 4 e 0.45013(6) 0.50653(5) -0.25722(4) . 1.
W8 W6+ 4 e 0.35085(7) 0.38109(4) -0.39280(4) . 1.
W9 W6+ 4 e 0.49842(6) 0.38439(5) -0.14141(4) . 1.
W10 W6+ 4 e 0.08837(6) 0.53253(5) -0.23753(4) . 1.
W11 W6+ 4 e 0.29041(7) 0.26613(5) -0.12885(4) . 1.
W12 W6+ 4 e 0.00199(6) 0.41854(5) -0.35881(4) . 1.
Ge1 Ge4+ 4 e 0.24826(15) 0.39531(11) -0.25081(10) . 1.
Cu1 Cu2+ 2 c 0 0.5 0 . 1.
O1 O2- 4 e 0.1009(12) 0.4172(8) -0.0419(6) . 1.
O2 O2- 4 e 0.3719(12) 0.5709(8) -0.0617(7) . 1.
O3 O2- 4 e 0.1874(13) 0.5856(8) -0.4292(8) . 1.
O4 O2- 4 e -0.0470(14) 0.2298(8) -0.2413(8) . 1.
O5 O2- 4 e 0.0983(12) 0.2214(8) -0.4380(8) . 1.
O6 O2- 4 e 0.4827(12) 0.1937(9) -0.2699(8) . 1.
O7 O2- 4 e 0.5311(12) 0.5577(8) -0.2843(7) . 1.
O8 O2- 4 e 0.4011(11) 0.3960(9) -0.4581(8) . 1.
O9 O2- 4 e 0.6098(12) 0.3558(9) -0.0922(8) . 1.
O10 O2- 4 e 0.0248(12) 0.5946(9) -0.2105(7) . 1.
O11 O2- 4 e 0.3404(12) 0.2035(8) -0.0747(7) . 1.
O12 O2- 4 e -0.1168(13) 0.4107(8) -0.4097(7) . 1.
O13 O2- 4 e 0.1545(11) 0.2298(8) -0.1705(7) . 1.
O14 O2- 4 e 0.4300(11) 0.4381(8) -0.3223(7) . 1.
O15 O2- 4 e 0.0411(11) 0.3342(7) -0.1527(7) . 1.
O16 O2- 4 e 0.2819(11) 0.2219(7) -0.3427(7) . 1.
O17 O2- 4 e 0.4678(10) 0.4556(7) -0.0890(6) . 1.
O18 O2- 4 e 0.1257(10) 0.5754(7) -0.3120(7) . 1.
O19 O2- 4 e 0.4298(11) 0.5541(7) -0.1808(6) . 1.
O20 O2- 4 e 0.4016(12) 0.3284(8) -0.1132(7) . 1.
O21 O2- 4 e 0.5449(10) 0.4493(7) -0.1957(7) . 1.
O22 O2- 4 e 0.0754(11) 0.3529(8) -0.3929(7) . 1.
O23 O2- 4 e 0.2666(11) 0.4489(7) -0.0958(6) . 1.
O24 O2- 4 e 0.2487(11) 0.4523(8) -0.4044(6) . 1.
O25 O2- 4 e 0.3323(11) 0.2410(7) -0.2072(6) . 1.
O26 O2- 4 e 0.0015(12) 0.3576(7) -0.2883(7) . 1.
O27 O2- 4 e -0.0212(10) 0.4913(8) -0.3009(7) . 1.
O28 O2- 4 e 0.2429(13) 0.3217(8) -0.4344(7) . 1.
O29 O2- 4 e 0.4750(11) 0.3237(7) -0.2173(7) . 1.
O30 O2- 4 e 0.0852(11) 0.4629(7) -0.1744(7) . 1.
O31 O2- 4 e 0.4300(12) 0.3053(8) -0.3531(7) . 1.
O32 O2- 4 e 0.2313(11) 0.3198(7) -0.0719(7) . 1.
O33 O2- 4 e 0.3189(12) 0.5365(7) -0.3093(6) . 1.
O34 O2- 4 e 0.0555(11) 0.4868(7) -0.4082(6) . 1.
O35 O2- 4 e 0.2271(10) 0.5435(7) -0.1841(6) . 1.
O36 O2- 4 e 0.1137(12) 0.2576(8) -0.3029(7) . 1.
O37 O2- 4 e 0.3558(9) 0.4378(7) -0.2063(6) . 1.
O38 O2- 4 e 0.2824(9) 0.3430(6) -0.3093(6) . 1.
O39 O2- 4 e 0.198(1) 0.3479(7) -0.1953(6) . 1.
O40 O2- 4 e 0.1579(9) 0.4519(6) -0.2931(6) . 1.
N1 N3- 4 e -0.1397(14) 0.3199(12) 0.0078(12) . 1.
O41 O2- 4 e -0.0695(12) 0.4227(9) 0.0276(8) . 1.
C1 C4+ 4 e -0.169(3) 0.265(2) -0.0355(19) . 1.
H1 H1- 4 e -0.1575 0.2746 -0.0787 . 1.
H2 H1- 4 e -0.2398 0.2554 -0.0406 . 1.
H3 H1- 4 e -0.1292 0.2263 -0.0165 . 1.
C2 C4+ 4 e -0.150(3) 0.321(2) 0.0787(19) . 1.
H4 H1- 4 e -0.1263 0.363 0.0993 . 1.
H5 H1- 4 e -0.1108 0.2853 0.1039 . 1.
H6 H1- 4 e -0.2206 0.3153 0.0783 . 1.
C3 C4+ 4 e -0.099(2) 0.3747(14) -0.0104(14) . 1.
H7 H1- 4 e -0.0924 0.3773 -0.0543 . 1.
N2 N3- 4 e 0.1815(15) 0.4640(12) 0.1938(10) . 1.
O42 O2- 4 e 0.0938(12) 0.5035(8) 0.0887(8) . 1.
C4 C4+ 4 e 0.208(2) 0.4061(15) 0.2381(12) . 1.
H8 H1- 4 e 0.1795 0.3665 0.2143 . 1.
H9 H1- 4 e 0.1822 0.4119 0.277 . 1.
H10 H1- 4 e 0.2812 0.4017 0.2522 . 1.
C5 C4+ 4 e 0.215(2) 0.5322(12) 0.2160(13) . 1.
H11 H1- 4 e 0.1898 0.5629 0.1795 . 1.
H12 H1- 4 e 0.2879 0.5339 0.2293 . 1.
H13 H1- 4 e 0.1885 0.5443 0.2535 . 1.
C6 C4+ 4 e 0.119(2) 0.4538(14) 0.1279(15) . 1.
H14 H1- 4 e 0.0973 0.4111 0.1133 . 1.
N3 N3- 4 e -0.3062(18) 0.2661(19) -0.3012(14) . 1.
O43 O2- 4 e -0.356(2) 0.285(3) -0.401(3) . 1.
C7 C4+ 4 e -0.317(9) 0.313(3) -0.349(3) . 1.
H15 H1- 4 e -0.2992 0.3577 -0.343 . 1.
C8 C4+ 4 e -0.283(4) 0.294(4) -0.233(4) . 1.
H16 H1- 4 e -0.2904 0.3413 -0.2353 . 1.
H17 H1- 4 e -0.2136 0.2827 -0.2099 . 1.
H18 H1- 4 e -0.3281 0.275 -0.209 . 1.
C9 C4+ 4 e -0.297(4) 0.192(3) -0.307(5) . 1.
H19 H1- 4 e -0.314 0.1793 -0.3538 . 1.
H20 H1- 4 e -0.3436 0.1701 -0.2854 . 1.
H21 H1- 4 e -0.229 0.178 -0.2858 . 1.
N4 N3- 4 e 0.4015(17) 0.3930(12) 0.0277(11) . 1.
C10 C4+ 4 e 0.341(2) 0.4239(19) 0.0674(14) . 1.
H22 H1- 4 e 0.3136 0.4654 0.0469 . 1.
H23 H1- 4 e 0.3822 0.4323 0.1121 . 1.
H24 H1- 4 e 0.2857 0.3947 0.0697 . 1.
C11 C4+ 4 e 0.446(3) 0.3308(18) 0.0547(11) . 1.
H25 H1- 4 e 0.4858 0.3131 0.026 . 1.
H26 H1- 4 e 0.3935 0.2997 0.057 . 1.
H27 H1- 4 e 0.4897 0.3379 0.0991 . 1.
N5 N3- 4 e 0.0928(17) 0.4076(11) -0.5348(9) . 1.
C12 C4+ 4 e 0.038(2) 0.3446(16) -0.5633(14) . 1.
H28 H1- 4 e -0.0118 0.3338 -0.5395 . 1.
H29 H1- 4 e 0.0865 0.3087 -0.5585 . 1.
H30 H1- 4 e 0.0054 0.3511 -0.6102 . 1.
C13 C4+ 4 e 0.170(2) 0.4262(17) -0.5697(14) . 1.
H31 H1- 4 e 0.2033 0.4667 -0.5507 . 1.
H32 H1- 4 e 0.1386 0.4329 -0.6168 . 1.
H33 H1- 4 e 0.2199 0.3911 -0.5647 . 1.
N6 N3- 4 e 0.450(2) 0.6387(13) -0.4717(14) . 1.
C14 C4+ 4 e 0.420(7) 0.564(3) -0.473(4) . 1.
H34 H1- 4 e 0.4339 0.5429 -0.5116 . 1.
H35 H1- 4 e 0.3487 0.5606 -0.4755 . 1.
H36 H1- 4 e 0.4587 0.5426 -0.4327 . 1.
C15 C4+ 4 e 0.428(3) 0.6679(19) -0.412(2) . 1.
H37 H1- 4 e 0.4473 0.7141 -0.409 . 1.
H38 H1- 4 e 0.4646 0.6445 -0.3729 . 1.
H39 H1- 4 e 0.3559 0.6645 -0.4162 . 1.
#End of TTdata_110457-ICSD