
#(C) 2020 by FIZ Karlsruhe - Leibniz Institute for Information Infrastructure.  All rights reserved.
data_109725-ICSD
_database_code_ICSD 109725
_audit_creation_date 2008-02-01
_chemical_name_common
'Tetrakis(tetramethylammonium) alpha-dodecatungstatosilicate'
_chemical_formula_structural '((C H3)4 N)4 (Si W12 O40)'
_chemical_formula_sum 'C16 H48 N4 O40 Si1 W12'
_exptl_crystal_density_diffrn 3.87
_citation_title

;
Strukturen und Schwingungsspektren des  tetramethylammonium-alpha-
dodekawolframatosilikats und des tetrabutylammonium-beta-
dodekawolframatosilikats
;
loop_
_citation_id
_citation_journal_full
_citation_year
_citation_journal_volume
_citation_page_first
_citation_page_last
_citation_journal_id_ASTM
primary

;
Zeitschrift fuer Naturforschung, Teil B: Anorganische Chemie, Organische
Chemie
; 1981 36 161 171 ZNBAD2
loop_
_citation_author_citation_id
_citation_author_name
primary 'Fuchs, J.'
primary 'Thiele, A.'
primary 'Palm, R.'
_cell_length_a 14.642(2)
_cell_length_b 14.642(2)
_cell_length_c 12.706(2)
_cell_angle_alpha 90.
_cell_angle_beta 90.
_cell_angle_gamma 90.
_cell_volume 2724.02
_cell_formula_units_Z 2
_space_group_name_H-M_alt 'I -4'
_space_group_IT_number 82
loop_
_space_group_symop_id
_space_group_symop_operation_xyz
1 '-y, x, -z'
2 'y, -x, -z'
3 '-x, -y, z'
4 'x, y, z'
5 '-y+1/2, x+1/2, -z+1/2'
6 'y+1/2, -x+1/2, -z+1/2'
7 '-x+1/2, -y+1/2, z+1/2'
8 'x+1/2, y+1/2, z+1/2'
loop_
_atom_type_symbol
_atom_type_oxidation_number
Si4+ 4
W6+ 6
O2- -2
N1+ 1
C0+ 0
H0+ 0
loop_
_atom_site_label
_atom_site_type_symbol
_atom_site_symmetry_multiplicity
_atom_site_Wyckoff_symbol
_atom_site_fract_x
_atom_site_fract_y
_atom_site_fract_z
_atom_site_B_iso_or_equiv
_atom_site_occupancy
Si1 Si4+ 2 a 0 0 0 . 1.
W1 W6+ 8 g 0.14212(8) 0.09608(9) 0.6952(1) . 1.
W2 W6+ 8 g -.08283(9) 0.14822(8) 0.6964(1) . 1.
W3 W6+ 8 g 0.05612(8) 0.23470(7) 0.50808(9) . 1.
O1 O2- 8 g 0.222(1) 0.125(1) 0.787(2) . 1.
O2 O2- 8 g -.145(2) 0.206(2) 0.793(2) . 1.
O3 O2- 8 g 0.079(1) 0.364(1) 0.487(2) . 1.
O4 O2- 8 g -.103(1) 0.025(1) 0.725(2) . 1.
O5 O2- 8 g 0.212(1) 0.041(1) 0.588(2) . 1.
O6 O2- 8 g 0.031(2) 0.141(2) 0.766(2) . 1.
O7 O2- 8 g -.171(1) 0.131(2) 0.588(2) . 1.
O8 O2- 8 g 0.142(1) 0.208(1) 0.617(2) . 1.
O9 O2- 8 g -.033(2) 0.249(2) 0.614(2) . 1.
O10 O2- 8 g 0.022(1) 0.089(1) 0.573(1) . 1.
N1 N1+ 8 g 0.430(1) 0.207(2) 0.502(2) . 1.
C1 C0+ 8 g 0.487(3) 0.277(3) 0.510(4) . 1.
C2 C0+ 8 g 0.332(2) 0.237(2) 0.497(3) . 1.
C3 C0+ 8 g 0.439(3) 0.154(3) 0.600(3) . 1.
C4 C0+ 8 g 0.453(4) 0.139(4) 0.411(5) . 1.
#End of TTdata_109725-ICSD